% demand
num_movements = 35;
loading_factor = [1550, 1750, 1900, 1250, 1750, 1400, 950, 1250, 1150, 2000, 1000, 1100, 1050, 1950, 900, 1750, 1500, 1900, 1750, 1100, 800, 1600, 1550, 1950, 850, 1450, 1200, 1400, 850, 1900, 900, 1150, 1900, 1200, 1100];
pickup_time = [0, 0, 0, 0, 1, 3, 3, 3, 3, 3, 4, 4, 4, 5, 6, 6, 6, 7, 7, 8, 9, 9, 10, 10, 10, 10, 10, 11, 11, 12, 13, 13, 13, 13, 13];
delivery_time = [1, 1, 1, 1, 2, 5, 6, 4, 4, 4, 7, 6, 7, 6, 7, 7, 7, 10, 8, 9, 10, 10, 11, 11, 11, 11, 11, 13, 13, 13, 14, 14, 14, 14, 14];

% transporter definition
total_capacity = 7000;
num_decks = 3;
capacity = [3000, 1000, 3000];

% ways out of decks
num_ways_out = 1;
paths_out = array3d(decks, ways_out, decks, [
% ways out of deck d1
2, 3, 0, 

% ways out of deck d2
3, 0, 0, 

% ways out of deck d3
0, 0, 0,	

]);

